#######################################
### Exact MIP solver for the HHCRSP ###
#######################################
-- Instance file: new-instances/HHCRSP_100_20_54_1.0_C_R.txt
-- Max threads: 4
-- Time limit: 999999 seconds
-- Use initial solution: No
Trivial flow violations prevented generating 47186 variables.
Model exported.
Version identifier: 20.1.0.0 | 2020-11-10 | 9bedb6d68
CPXPARAM_Threads                                 4
CPXPARAM_TimeLimit                               999999
Parallel mode: deterministic, using up to 4 threads for concurrent optimization:
 * Starting dual Simplex on 1 thread...
 * Starting Barrier on 3 threads...
Tried aggregator 1 time.
LP Presolve eliminated 5082 rows and 1140 columns.
Reduced LP has 44082 rows, 42258 columns, and 487393 nonzeros.
Presolve time = 0.30 sec. (128.06 ticks)
Symmetry aggregator did 38978 additional substitutions.

Iteration log . . .
Iteration:     1   Dual objective     =             0.000000

Dual crossover.
  Dual:  Fixing 268 variables.
      267 DMoves:  Infeasibility  7.53286356e-14  Objective  2.08000000e+02
        0 DMoves:  Infeasibility  5.61217773e-14  Objective  2.08000000e+02
  Dual:  Pushed 20, exchanged 248.
  Primal:  Fixing 95 variables.
       94 PMoves:  Infeasibility  2.49800181e-16  Objective  2.08000000e+02
        0 PMoves:  Infeasibility  3.33066907e-16  Objective  2.08000000e+02
  Primal:  Pushed 50, exchanged 45.

Dual simplex solved model.


Solution status from MIP model:
-- Processing time: 0.494 sec.
-- Memory used: 99.6377 MB
-- Best bound: inf
-- Obj value: 208
-- Gap: inf%
-- Total distance: 624
-- Total tardiness: 0
-- Largest tardiness: 0
